p cnf 12 20
12 11 -2 0
12 10 7 0
12 -9 2 0
-12 -8 -3 0
12 -7 3 0
12 -4 -3 0
-11 -8 6 0
11 -8 6 0
-11 -8 -5 0
11 -8 -4 0
-11 6 2 0
10 9 3 0
10 -8 -5 0
9 -6 1 0
9 -3 -2 0
8 -5 -4 0
8 -4 2 0
-7 -5 2 0
6 2 -1 0
-4 -3 -1 0
